proyfinal/src/viki/013/experimentInOfficeAgust.take6.output/0fb2a71b-2fec-429b-8f72-0fb43227659d.als.dat
{'cnf.clauses': '118081',
 'cnf.totvars': '69608',
 'conflict literals': '33',
 'conflicts': '13',
 'decisions': '4489',
 'memused.mb': '17.43',
 'outcome': 'UNSAT',
 'propagations': '31069',
 'restarts': '1',
 'solver.msecs': 31,
 'task.msecs': 98}
