proyfinal/src/viki/013/experimentInOfficeAgust.take6.output/0fb2a71b-2fec-429b-8f72-0fb43227659d.als.out
Reading from standard input... Use '--help' for help.
============================[ Problem Statistics ]=============================
|                                                                             |
|  Number of variables:         69608                                         |
|  Number of clauses:          118081                                         |
|  Parse time:                   0.02 s                                       |
|                                                                             |
============================[ Search Statistics ]==============================
| Conflicts |          ORIGINAL         |          LEARNT          | Progress |
|           |    Vars  Clauses Literals |    Limit  Clauses Lit/Cl |          |
===============================================================================
===============================================================================
restarts              : 1
conflicts             : 13             (415 /sec)
decisions             : 4489           (0.00 % random) (143158 /sec)
propagations          : 31069          (990815 /sec)
conflict literals     : 33             (0.00 % deleted)
Memory used           : 17.43 MB
CPU time              : 0.031357 s

UNSATISFIABLE
